(set-logic QF_S)
(set-option :strings-exp true)
(set-option :produce-models true)
(declare-fun sigmaStar_0 () String)
(declare-fun sigmaStar_7 () String)
(declare-fun literal_8 () String)
(declare-fun x_9 () String)
(declare-fun literal_10 () String)
(declare-fun x_11 () String)
(assert (= literal_8 "\x3c\x70\x20\x61\x6c\x69\x67\x6e\x3d\x22\x72\x69\x67\x68\x74\x22\x3e\x3c\x66\x6f\x6e\x74\x20\x73\x69\x7a\x65\x3d\x22\x31\x22\x3e\x77\x65\x69\x67\x68\x74\x3a\x20"))
(assert (= x_9 (str.++ literal_8 sigmaStar_7)))
(assert (= literal_10 "\x3c\x2f\x66\x6f\x6e\x74\x3e\x5c\x6e"))
(assert (= x_11 (str.++ x_9 literal_10)))
(assert (str.in.re x_11 (re.++ (re.* re.allchar) (re.++ (str.to.re "\x5c\x3c\x53\x43\x52\x49\x50\x54") (re.* re.allchar)))))
(check-sat)
(get-model)
